(set-info :smt-lib-version 2.6)
(set-logic QF_NIA)
(set-info :source |AProve team, see http://aprove.informatik.rwth-aachen.de/, submitted for SMT-COMP 2014|)
(set-info :category "industrial")
(set-info :status sat)
(declare-fun a__4 () Int)
(declare-fun a__2 () Int)
(declare-fun a__6 () Int)
(declare-fun a__9 () Int)
(declare-fun a__12 () Int)
(declare-fun a__14 () Int)
(declare-fun a__18 () Int)
(declare-fun a__22 () Int)
(declare-fun a__26 () Int)
(declare-fun a__30 () Int)
(declare-fun a__33 () Int)
(declare-fun a__35 () Int)
(declare-fun a__39 () Int)
(declare-fun a__43 () Int)
(declare-fun a__47 () Int)
(declare-fun a__51 () Int)
(declare-fun a__54 () Int)
(declare-fun a__56 () Int)
(declare-fun a__58 () Int)
(declare-fun a__61 () Int)
(declare-fun a__63 () Int)
(declare-fun a__66 () Int)
(declare-fun a__69 () Int)
(declare-fun a__72 () Int)
(declare-fun a__74 () Int)
(declare-fun a__76 () Int)
(declare-fun a__80 () Int)
(declare-fun a__84 () Int)
(declare-fun a__88 () Int)
(declare-fun a__92 () Int)
(declare-fun a__94 () Int)
(declare-fun a__95 () Int)
(declare-fun a__97 () Int)
(declare-fun a__101 () Int)
(declare-fun a__104 () Int)
(declare-fun a__107 () Int)
(declare-fun a__110 () Int)
(declare-fun a__114 () Int)
(declare-fun a__118 () Int)
(declare-fun a__121 () Int)
(declare-fun a__124 () Int)
(declare-fun a__125 () Int)
(declare-fun a__127 () Int)
(declare-fun a__131 () Int)
(declare-fun a__136 () Int)
(declare-fun a__141 () Int)
(declare-fun a__146 () Int)
(declare-fun a__151 () Int)
(declare-fun a__156 () Int)
(declare-fun a__161 () Int)
(declare-fun a__164 () Int)
(declare-fun a__167 () Int)
(declare-fun a__171 () Int)
(declare-fun a__174 () Int)
(declare-fun a__177 () Int)
(declare-fun a__180 () Int)
(declare-fun a__184 () Int)
(declare-fun a__188 () Int)
(declare-fun a__192 () Int)
(declare-fun a__196 () Int)
(declare-fun a__200 () Int)
(declare-fun a__204 () Int)
(declare-fun a__208 () Int)
(declare-fun a__212 () Int)
(declare-fun a__216 () Int)
(declare-fun a__220 () Int)
(declare-fun a__224 () Int)
(declare-fun a__228 () Int)
(declare-fun a__231 () Int)
(declare-fun a__3 () Int)
(declare-fun a__5 () Int)
(declare-fun a__8 () Int)
(declare-fun a__11 () Int)
(declare-fun a__13 () Int)
(declare-fun a__17 () Int)
(declare-fun a__21 () Int)
(declare-fun a__25 () Int)
(declare-fun a__29 () Int)
(declare-fun a__32 () Int)
(declare-fun a__34 () Int)
(declare-fun a__38 () Int)
(declare-fun a__42 () Int)
(declare-fun a__46 () Int)
(declare-fun a__50 () Int)
(declare-fun a__53 () Int)
(declare-fun a__55 () Int)
(declare-fun a__57 () Int)
(declare-fun a__60 () Int)
(declare-fun a__62 () Int)
(declare-fun a__65 () Int)
(declare-fun a__68 () Int)
(declare-fun a__71 () Int)
(declare-fun a__73 () Int)
(declare-fun a__75 () Int)
(declare-fun a__79 () Int)
(declare-fun a__83 () Int)
(declare-fun a__87 () Int)
(declare-fun a__91 () Int)
(declare-fun a__93 () Int)
(declare-fun a__96 () Int)
(declare-fun a__100 () Int)
(declare-fun a__103 () Int)
(declare-fun a__106 () Int)
(declare-fun a__109 () Int)
(declare-fun a__113 () Int)
(declare-fun a__117 () Int)
(declare-fun a__120 () Int)
(declare-fun a__123 () Int)
(declare-fun a__126 () Int)
(declare-fun a__130 () Int)
(declare-fun a__135 () Int)
(declare-fun a__140 () Int)
(declare-fun a__145 () Int)
(declare-fun a__150 () Int)
(declare-fun a__155 () Int)
(declare-fun a__160 () Int)
(declare-fun a__163 () Int)
(declare-fun a__166 () Int)
(declare-fun a__170 () Int)
(declare-fun a__173 () Int)
(declare-fun a__176 () Int)
(declare-fun a__179 () Int)
(declare-fun a__183 () Int)
(declare-fun a__187 () Int)
(declare-fun a__191 () Int)
(declare-fun a__195 () Int)
(declare-fun a__199 () Int)
(declare-fun a__203 () Int)
(declare-fun a__207 () Int)
(declare-fun a__211 () Int)
(declare-fun a__215 () Int)
(declare-fun a__219 () Int)
(declare-fun a__223 () Int)
(declare-fun a__227 () Int)
(declare-fun a__230 () Int)
(assert (and (>= (+ (* a__4 a__2) (* (- 0 1) a__2)) 0) (>= (+ (* a__6 a__2) (* (- 0 1) a__2)) 0) (>= (+ (* a__9 a__2) (* (- 0 1) a__2)) 0) (>= (+ (* a__12 a__2) (* (- 0 1) a__2)) 0) (>= (+ (* a__14 a__2) (* (- 0 1) a__2)) 0) (>= (+ (* a__18 a__2) (* (- 0 1) a__2)) 0) (>= (+ (* a__22 a__2) (* (- 0 1) a__2)) 0) (>= (+ (* a__26 a__2) (* (- 0 1) a__2)) 0) (>= (+ (* a__30 a__2) (* (- 0 1) a__2)) 0) (>= (+ (* a__33 a__2) (* (- 0 1) a__2)) 0) (>= (+ (* a__35 a__2) (* (- 0 1) a__2)) 0) (>= (+ (* a__39 a__2) (* (- 0 1) a__2)) 0) (>= (+ (* a__43 a__2) (* (- 0 1) a__2)) 0) (>= (+ (* a__47 a__2) (* (- 0 1) a__2)) 0) (>= (+ (* a__51 a__2) (* (- 0 1) a__2)) 0) (>= (+ (* a__54 a__2) (* (- 0 1) a__2)) 0) (>= (+ (* a__56 a__2) (* (- 0 1) a__2)) 0) (>= (+ (* a__58 a__2) (* (- 0 1) a__2)) 0) (>= (+ (* a__61 a__2) (* (- 0 1) a__2)) 0) (>= (+ (* a__63 a__2) (* (- 0 1) a__2)) 0) (>= (+ (* a__66 a__2) (* (- 0 1) a__2)) 0) (>= (+ (* a__69 a__2) (* (- 0 1) a__2)) 0) (>= (+ (* a__72 a__2) (* (- 0 1) a__2)) 0) (>= (+ (* a__74 a__2) (* (- 0 1) a__2)) 0) (>= (+ (* a__76 a__2) (* (- 0 1) a__2)) 0) (>= (+ (* a__80 a__2) (* (- 0 1) a__2)) 0) (>= (+ (* a__84 a__2) (* (- 0 1) a__2)) 0) (>= (+ (* a__88 a__2) (* (- 0 1) a__2)) 0) (>= (+ (* a__92 a__2) (* (- 0 1) a__2)) 0) (>= (+ (* a__94 a__2) (* (- 0 1) a__2)) 0) (>= (+ (* a__95 a__2) (* (- 0 1) a__2)) 0) (>= (+ (* a__97 a__2) (* (- 0 1) a__2)) 0) (>= (+ (* a__101 a__2) (* (- 0 1) a__2)) 0) (>= (+ (* a__104 a__2) (* (- 0 1) a__2)) 0) (>= (+ (* a__107 a__2) (* (- 0 1) a__2)) 0) (>= (+ (* a__110 a__2) (* (- 0 1) a__2)) 0) (>= (+ (* a__114 a__2) (* (- 0 1) a__2)) 0) (>= (+ (* a__118 a__2) (* (- 0 1) a__2)) 0) (>= (+ (* a__121 a__2) (* (- 0 1) a__2)) 0) (>= (+ (* a__124 a__2) (* (- 0 1) a__2)) 0) (>= (+ (* a__125 a__2) (* (- 0 1) a__2)) 0) (>= (+ (* a__127 a__2) (* (- 0 1) a__2)) 0) (>= (+ (* a__131 a__2) (* (- 0 1) a__2)) 0) (>= (+ (* a__136 a__2) (* (- 0 1) a__2)) 0) (>= (+ (* a__141 a__2) (* (- 0 1) a__2)) 0) (>= (+ (* a__146 a__2) (* (- 0 1) a__2)) 0) (>= (+ (* a__151 a__2) (* (- 0 1) a__2)) 0) (>= (+ (* a__156 a__2) (* (- 0 1) a__2)) 0) (>= (+ (* a__161 a__2) (* (- 0 1) a__2)) 0) (>= (+ (* a__164 a__2) (* (- 0 1) a__2)) 0) (>= (+ (* a__167 a__2) (* (- 0 1) a__2)) 0) (>= (+ (* a__171 a__2) (* (- 0 1) a__2)) 0) (>= (+ (* a__174 a__2) (* (- 0 1) a__2)) 0) (>= (+ (* a__177 a__2) (* (- 0 1) a__2)) 0) (>= (+ (* a__180 a__2) (* (- 0 1) a__2)) 0) (>= (+ (* a__184 a__2) (* (- 0 1) a__2)) 0) (>= (+ (* a__188 a__2) (* (- 0 1) a__2)) 0) (>= (+ (* a__192 a__2) (* (- 0 1) a__2)) 0) (>= (+ (* a__196 a__2) (* (- 0 1) a__2)) 0) (>= (+ (* a__200 a__2) (* (- 0 1) a__2)) 0) (>= (+ (* a__204 a__2) (* (- 0 1) a__2)) 0) (>= (+ (* a__208 a__2) (* (- 0 1) a__2)) 0) (>= (+ (* a__212 a__2) (* (- 0 1) a__2)) 0) (>= (+ (* a__216 a__2) (* (- 0 1) a__2)) 0) (>= (+ (* a__220 a__2) (* (- 0 1) a__2)) 0) (>= (+ (* a__224 a__2) (* (- 0 1) a__2)) 0) (>= (+ (* a__228 a__2) (* (- 0 1) a__2)) 0) (>= (+ (* a__231 a__2) (* (- 0 1) a__2)) 0) (>= (* a__3 a__2) 0) (>= (* a__5 a__2) 0) (>= (* a__8 a__2) 0) (>= (* a__11 a__2) 0) (>= (* a__13 a__2) 0) (>= (* a__17 a__2) 0) (>= (* a__21 a__2) 0) (>= (* a__25 a__2) 0) (>= (* a__29 a__2) 0) (>= (* a__32 a__2) 0) (>= (* a__34 a__2) 0) (>= (* a__38 a__2) 0) (>= (* a__42 a__2) 0) (>= (* a__46 a__2) 0) (>= (* a__50 a__2) 0) (>= (* a__53 a__2) 0) (>= (* a__55 a__2) 0) (>= (* a__57 a__2) 0) (>= (* a__60 a__2) 0) (>= (* a__62 a__2) 0) (>= (* a__65 a__2) 0) (>= (* a__68 a__2) 0) (>= (* a__71 a__2) 0) (>= (* a__73 a__2) 0) (>= (* a__75 a__2) 0) (>= (* a__79 a__2) 0) (>= (* a__83 a__2) 0) (>= (* a__87 a__2) 0) (>= (* a__91 a__2) 0) (>= (* a__93 a__2) 0) (>= (* a__96 a__2) 0) (>= (* a__100 a__2) 0) (>= (* a__103 a__2) 0) (>= (* a__106 a__2) 0) (>= (* a__109 a__2) 0) (>= (* a__113 a__2) 0) (>= (* a__117 a__2) 0) (>= (* a__120 a__2) 0) (>= (* a__123 a__2) 0) (>= (* a__126 a__2) 0) (>= (* a__130 a__2) 0) (>= (* a__135 a__2) 0) (>= (* a__140 a__2) 0) (>= (* a__145 a__2) 0) (>= (* a__150 a__2) 0) (>= (* a__155 a__2) 0) (>= (* a__160 a__2) 0) (>= (* a__163 a__2) 0) (>= (* a__166 a__2) 0) (>= (* a__170 a__2) 0) (>= (* a__173 a__2) 0) (>= (* a__176 a__2) 0) (>= (* a__179 a__2) 0) (>= (* a__183 a__2) 0) (>= (* a__187 a__2) 0) (>= (* a__191 a__2) 0) (>= (* a__195 a__2) 0) (>= (* a__199 a__2) 0) (>= (* a__203 a__2) 0) (>= (* a__207 a__2) 0) (>= (* a__211 a__2) 0) (>= (* a__215 a__2) 0) (>= (* a__219 a__2) 0) (>= (* a__223 a__2) 0) (>= (* a__227 a__2) 0) (>= (* a__230 a__2) 0) (not (and (= (* a__3 a__2) 0) (= (* a__5 a__2) 0) (= (* a__8 a__2) 0) (= (* a__11 a__2) 0) (= (* a__13 a__2) 0) (= (* a__17 a__2) 0) (= (* a__21 a__2) 0) (= (* a__25 a__2) 0) (= (* a__29 a__2) 0) (= (* a__32 a__2) 0) (= (* a__34 a__2) 0) (= (* a__38 a__2) 0) (= (* a__42 a__2) 0) (= (* a__46 a__2) 0) (= (* a__50 a__2) 0) (= (* a__53 a__2) 0) (= (* a__55 a__2) 0) (= (* a__57 a__2) 0) (= (* a__60 a__2) 0) (= (* a__62 a__2) 0) (= (* a__65 a__2) 0) (= (* a__68 a__2) 0) (= (* a__71 a__2) 0) (= (* a__73 a__2) 0) (= (* a__75 a__2) 0) (= (* a__79 a__2) 0) (= (* a__83 a__2) 0) (= (* a__87 a__2) 0) (= (* a__91 a__2) 0) (= (* a__93 a__2) 0) (= (* a__96 a__2) 0) (= (* a__100 a__2) 0) (= (* a__103 a__2) 0) (= (* a__106 a__2) 0) (= (* a__109 a__2) 0) (= (* a__113 a__2) 0) (= (* a__117 a__2) 0) (= (* a__120 a__2) 0) (= (* a__123 a__2) 0) (= (* a__126 a__2) 0) (= (* a__130 a__2) 0) (= (* a__135 a__2) 0) (= (* a__140 a__2) 0) (= (* a__145 a__2) 0) (= (* a__150 a__2) 0) (= (* a__155 a__2) 0) (= (* a__160 a__2) 0) (= (* a__163 a__2) 0) (= (* a__166 a__2) 0) (= (* a__170 a__2) 0) (= (* a__173 a__2) 0) (= (* a__176 a__2) 0) (= (* a__179 a__2) 0) (= (* a__183 a__2) 0) (= (* a__187 a__2) 0) (= (* a__191 a__2) 0) (= (* a__195 a__2) 0) (= (* a__199 a__2) 0) (= (* a__203 a__2) 0) (= (* a__207 a__2) 0) (= (* a__211 a__2) 0) (= (* a__215 a__2) 0) (= (* a__219 a__2) 0) (= (* a__223 a__2) 0) (= (* a__227 a__2) 0) (= (* a__230 a__2) 0))) (>= a__4 0) (>= a__2 0) (>= a__6 0) (>= a__9 0) (>= a__12 0) (>= a__14 0) (>= a__18 0) (>= a__22 0) (>= a__26 0) (>= a__30 0) (>= a__33 0) (>= a__35 0) (>= a__39 0) (>= a__43 0) (>= a__47 0) (>= a__51 0) (>= a__54 0) (>= a__56 0) (>= a__58 0) (>= a__61 0) (>= a__63 0) (>= a__66 0) (>= a__69 0) (>= a__72 0) (>= a__74 0) (>= a__76 0) (>= a__80 0) (>= a__84 0) (>= a__88 0) (>= a__92 0) (>= a__94 0) (>= a__95 0) (>= a__97 0) (>= a__101 0) (>= a__104 0) (>= a__107 0) (>= a__110 0) (>= a__114 0) (>= a__118 0) (>= a__121 0) (>= a__124 0) (>= a__125 0) (>= a__127 0) (>= a__131 0) (>= a__136 0) (>= a__141 0) (>= a__146 0) (>= a__151 0) (>= a__156 0) (>= a__161 0) (>= a__164 0) (>= a__167 0) (>= a__171 0) (>= a__174 0) (>= a__177 0) (>= a__180 0) (>= a__184 0) (>= a__188 0) (>= a__192 0) (>= a__196 0) (>= a__200 0) (>= a__204 0) (>= a__208 0) (>= a__212 0) (>= a__216 0) (>= a__220 0) (>= a__224 0) (>= a__228 0) (>= a__231 0) (>= a__3 0) (>= a__5 0) (>= a__8 0) (>= a__11 0) (>= a__13 0) (>= a__17 0) (>= a__21 0) (>= a__25 0) (>= a__29 0) (>= a__32 0) (>= a__34 0) (>= a__38 0) (>= a__42 0) (>= a__46 0) (>= a__50 0) (>= a__53 0) (>= a__55 0) (>= a__57 0) (>= a__60 0) (>= a__62 0) (>= a__65 0) (>= a__68 0) (>= a__71 0) (>= a__73 0) (>= a__75 0) (>= a__79 0) (>= a__83 0) (>= a__87 0) (>= a__91 0) (>= a__93 0) (>= a__96 0) (>= a__100 0) (>= a__103 0) (>= a__106 0) (>= a__109 0) (>= a__113 0) (>= a__117 0) (>= a__120 0) (>= a__123 0) (>= a__126 0) (>= a__130 0) (>= a__135 0) (>= a__140 0) (>= a__145 0) (>= a__150 0) (>= a__155 0) (>= a__160 0) (>= a__163 0) (>= a__166 0) (>= a__170 0) (>= a__173 0) (>= a__176 0) (>= a__179 0) (>= a__183 0) (>= a__187 0) (>= a__191 0) (>= a__195 0) (>= a__199 0) (>= a__203 0) (>= a__207 0) (>= a__211 0) (>= a__215 0) (>= a__219 0) (>= a__223 0) (>= a__227 0) (>= a__230 0)))
(check-sat)
;;(get-assignment)
;;(get-model)
(exit)
